(set-logic QF_LRA)
(declare-fun x1 () Real)
(declare-fun x2 () Real)
(declare-fun x3 () Real)
(declare-fun x4 () Real)
(declare-fun x5 () Real)
(declare-fun x6 () Real)
(declare-fun x7 () Real)
(declare-fun x8 () Real)
(declare-fun x9 () Real)
(declare-fun x10 () Real)

(assert (>= (- 4 ( + ( + (* -3 x2) (* 7 x1) ) (* -2 x3) )) 0))
(assert (>= (- 0 ( + ( + (* -1 x3) x1 ) (* -4 x4) )) 0))
(assert (>= (- 9 ( + ( + (* 6 x5) (* -2 x1) ) (* -4 x4) )) 0))
(assert (>= (- -6 ( + ( + (* 5 x3) (* -2 x4) ) x6 )) 0))
(assert (>= (- 6 ( + ( + (* 6 x6) (* 5 x4) ) (* -7 x7) )) 0))
(assert (>= (- 3 ( + ( + (* -1 x1) x5 ) (* 8 x8) )) 0))
(assert (>= (- 0 ( + ( + (* 4 x9) (* 5 x2) ) (* -8 x3) )) 0))
(assert (>= (- 4 ( + ( + (* 8 x5) (* 5 x1) ) (* -2 x10) )) 0))
(assert (>= (- 10 ( + (* -2 x5) (* -6 x10) )) 0))
(assert (>= (- -3 ( + (* 9 x1) (* -4 x10) )) 0))
(assert (>= (- 5 ( + (* 9 x1) (* 9 x4) )) 0))
(assert (>= (- 9 ( + ( + (* -3 x5) (* -8 x1) ) (* -6 x4) )) 0))
(assert (>= (- 10 (* -1 x1)) 0))
(assert (>= (- -9 ( + ( + (* 5 x6) (* -4 x3) ) (* 10 x4) )) 0))
(assert (>= (- 2 ( + ( + (* 5 x1) (* 3 x3) ) (* -2 x4) )) 0))
(assert (>= (- 2 x7) 0))
(assert (>= (- 8 (* 7 x1)) 0))
(assert (>= (- -1 (* -4 x10)) 0))
(assert (>= (- 10 ( + (* -9 x3) (* -9 x2) )) 0))
(assert (>= (- -3 (* -5 x3)) 0))
(check-sat)
(exit)